!*** FMO 5.2 (Gamess) INPUT generated by Facio 22.1.1.64 ***
 $CONTRL RUNTYP=ENERGY NPRINT=-5 ISPHER=-1 MAXIT=50 $END
 $SYSTEM MWORDS=29 $END
 $GDDI NGROUP=1 $END
 $INTGRL NINTIC=-9000000 $END
 $SCF DIRSCF=.FALSE. NPUNCH=0 $END
!*** NumCPU : 2  MemPerNode : 512MB
 $FMOPRP
    NAODIR=210
    NGRFMO(1)=1, 1, 0, 0, 0,   0, 0, 0, 0, 0
    NPRINT=9
 $END
 $FMO
      SCFTYP(1)=RHF
      MODGRD=10
      MODMUL=0
      MAXCAO=5
      MAXBND=9
      NLAYER=1
      NFRAG=9
      ICHARG(1)=   0,  0,  0, -1,  0,  0,  0,  0,  0
      FRGNAM(1)= Phe-1, Pro-3, Ser-4, Asp-5, Tyr-6, 
                 Phe-7, Pro-8, Ser-9, Val-10
      INDAT(1)= 0
                1    -23     26    -42      0
               24     25     43     44     47    -56      0
               45     46     57     58     61    -67      0
               59     60     68     69     72    -79      0
               70     71     80     81     84   -100      0
               82     83    101    102    105   -120      0
              103    104    121    122    125   -134      0
              123    124    135    136    139   -145      0
              137    138    146   -163      0
 $END
 $FMOHYB
 3-21G        9   5
   1 0  -0.070459   0.164841   0.000000   0.000000   0.502116
         0.466939   0.000000   0.000000   0.418036
   0 1  -0.070465   0.164857   0.473392   0.000000  -0.167359
         0.466967   0.394111   0.000000  -0.139327
   0 1  -0.070465   0.164857  -0.236695  -0.409969  -0.167359
         0.466967  -0.197055  -0.341311  -0.139327
   0 1  -0.070465   0.164857  -0.236695   0.409969  -0.167359
         0.466967  -0.197055   0.341311  -0.139327
   0 1   1.006716   0.074826   0.000000   0.000000   0.000000
        -0.143830   0.000000   0.000000  -0.000003
 MINI         5   5
   1 0  -0.104883   0.308874   0.000000   0.000000   0.521806
   0 1  -0.104883   0.308874   0.491961   0.000000  -0.173934
   0 1  -0.104883   0.308876  -0.245980  -0.426050  -0.173933
   0 1  -0.104883   0.308876  -0.245980   0.426050  -0.173933
   0 1   0.988209   0.063992   0.000000   0.000000   0.000000
 $END
 $FMOBND
       -23        24  3-21G      MINI
       -44        45  3-21G      MINI
       -58        59  3-21G      MINI
       -69        70  3-21G      MINI
       -81        82  3-21G      MINI
      -102       103  3-21G      MINI
      -122       123  3-21G      MINI
      -136       137  3-21G      MINI
 $END
 $DATA
 FMO calculation : L_P02_2A.pdb
 C1 
 N.1-1    7
      N21 3
   
 C.1-1    6
      N21 3
   
 O.1-1    8
      N21 3
   
 H.1-1    1
      N21 3
   
 $END
 $FMOXYZ
      1      N          -30.577       -6.371       10.646
      2      C          -31.005       -7.428        9.702
      3      C          -29.916       -8.498        9.624
      4      O          -28.789       -8.242        9.226
      5      C          -31.187       -6.811        8.309
      6      C          -31.892       -7.736        7.371
      7      C          -33.287       -7.800        7.362
      8      C          -31.156       -8.507        6.468
      9      C          -33.943       -8.613        6.440
     10      C          -31.814       -9.315        5.545
     11      C          -33.207       -9.363        5.524
     12      H          -30.343       -6.759       11.557
     13      H          -29.759       -5.883       10.291
     14      H          -31.976       -7.856       10.068
     15      H          -30.198       -6.508        7.895
     16      H          -31.765       -5.859        8.406
     17      H          -33.868       -7.205        8.067
     18      H          -30.066       -8.490        6.503
     19      H          -35.032       -8.656        6.436
     20      H          -31.238       -9.914        4.842
     21      H          -33.718       -9.989        4.795
     22      N          -30.266       -9.721       10.086
     23      C          -29.232      -10.736       10.251
     24      C          -28.793      -11.262        8.881
     25      O          -29.568      -11.345        7.937
     26      C          -29.821      -11.939       10.987
     27      C          -30.145      -11.557       12.432
     28      C          -30.812      -12.735       13.137
     29      C          -29.733      -13.728       13.590
     30      N          -29.323      -14.422       12.377
     31      H          -31.199       -9.921       10.504
     32      H          -28.363      -10.295       10.805
     33      H          -29.115      -12.797       10.933
     34      H          -30.719      -12.330       10.476
     35      H          -30.814      -10.679       12.469
     36      H          -29.218      -11.268       12.967
     37      H          -31.401      -12.402       13.992
     38      H          -31.550      -13.241       12.480
     39      H          -28.894      -13.226       14.101
     40      H          -30.159      -14.441       14.313
     41      H          -28.349      -14.417       12.153
     42      H          -29.737      -15.331       12.310
     43      N          -27.484      -11.659        8.719
     44      C          -27.200      -12.595        7.625
     45      C          -28.132      -13.807        7.770
     46      O          -28.748      -14.047        8.787
     47      C          -25.739      -13.032        7.834
     48      C          -25.511      -12.886        9.347
     49      C          -26.474      -11.766        9.793
     50      H          -27.369      -12.076        6.647
     51      H          -25.056      -12.374        7.261
     52      H          -25.548      -14.063        7.487
     53      H          -25.759      -13.833        9.867
     54      H          -24.467      -12.642        9.578
     55      H          -26.925      -11.997       10.780
     56      H          -25.954      -10.780        9.865
     57      N          -28.319      -14.574        6.630
     58      C          -29.030      -15.835        6.796
     59      C          -28.031      -16.930        7.207
     60      O          -26.838      -16.741        7.339
     61      C          -29.762      -16.194        5.489
     62      O          -28.744      -16.538        4.568
     63      H          -27.678      -14.531        5.848
     64      H          -29.788      -15.727        7.634
     65      H          -30.452      -17.048        5.629
     66      H          -30.320      -15.325        5.091
     67      H          -29.131      -16.937        3.762
     68      N          -28.609      -18.152        7.457
     69      C          -27.854      -19.259        8.040
     70      C          -27.078      -20.001        6.924
     71      O          -27.303      -21.169        6.677
     72      C          -28.890      -20.184        8.700
     73      C          -28.341      -21.411        9.348
     74      O          -27.230      -21.154       10.082
     75      O          -28.830      -22.508        9.347
     76      H          -29.601      -18.307        7.302
     77      H          -27.119      -18.873        8.805
     78      H          -29.644      -20.507        7.941
     79      H          -29.444      -19.599        9.479
     80      N          -26.106      -19.281        6.278
     81      C          -25.402      -19.840        5.124
     82      C          -23.996      -20.355        5.476
     83      O          -23.251      -20.774        4.605
     84      C          -25.287      -18.818        3.976
     85      C          -24.650      -17.522        4.367
     86      C          -23.293      -17.471        4.692
     87      C          -25.415      -16.349        4.373
     88      C          -22.712      -16.277        5.106
     89      C          -24.850      -15.137        4.748
     90      C          -23.514      -15.139        5.150
     91      O          -23.033      -13.942        5.584
     92      H          -25.985      -18.282        6.464
     93      H          -25.971      -20.748        4.743
     94      H          -26.295      -18.646        3.542
     95      H          -24.709      -19.282        3.133
     96      H          -22.681      -18.374        4.629
     97      H          -26.468      -16.383        4.086
     98      H          -21.668      -16.243        5.393
     99      H          -25.413      -14.210        4.735
    100      H          -22.179      -14.059        6.084
    101      N          -23.588      -20.334        6.788
    102      C          -22.324      -20.967        7.138
    103      C          -22.596      -22.468        7.366
    104      O          -23.370      -22.826        8.252
    105      C          -21.740      -20.473        8.477
    106      C          -21.395      -19.022        8.428
    107      C          -20.099      -18.615        8.107
    108      C          -22.372      -18.069        8.730
    109      C          -19.781      -17.259        8.098
    110      C          -22.053      -16.714        8.707
    111      C          -20.755      -16.308        8.396
    112      H          -24.205      -20.072        7.556
    113      H          -21.582      -20.790        6.311
    114      H          -20.849      -21.092        8.725
    115      H          -22.459      -20.675        9.308
    116      H          -19.331      -19.355        7.871
    117      H          -23.386      -18.394        8.978
    118      H          -18.763      -16.949        7.863
    119      H          -22.824      -15.976        8.920
    120      H          -20.502      -15.253        8.382
    121      N          -21.930      -23.374        6.610
    122      C          -21.902      -24.794        6.968
    123      C          -21.454      -24.919        8.425
    124      O          -20.725      -24.106        8.982
    125      C          -20.851      -25.439        6.033
    126      C          -20.775      -24.476        4.838
    127      C          -21.072      -23.091        5.444
    128      H          -22.924      -25.239        6.815
    129      H          -21.132      -26.462        5.733
    130      H          -19.868      -25.534        6.535
    131      H          -21.534      -24.736        4.074
    132      H          -19.797      -24.512        4.334
    133      H          -20.135      -22.589        5.774
    134      H          -21.609      -22.423        4.729
    135      N          -21.915      -26.018        9.097
    136      C          -21.304      -26.333       10.383
    137      C          -19.798      -26.564       10.138
    138      O          -19.346      -26.709        9.008
    139      C          -22.013      -27.548       11.010
    140      O          -21.480      -27.810       12.280
    141      H          -22.449      -26.747        8.638
    142      H          -21.420      -25.438       11.069
    143      H          -23.104      -27.368       11.107
    144      H          -21.837      -28.490       10.447
    145      H          -21.463      -27.014       12.863
    146      N          -18.974      -26.454       11.213
    147      C          -17.534      -26.312       11.016
    148      C          -16.840      -27.603       10.585
    149      O          -15.753      -27.609       10.066
    150      C          -16.847      -25.712       12.269
    151      C          -17.300      -24.262       12.476
    152      C          -17.106      -26.544       13.523
    153      O          -17.530      -28.731       10.765
    154      H          -19.336      -26.374       12.157
    155      H          -17.367      -25.602       10.143
    156      H          -15.737      -25.713       12.059
    157      H          -17.166      -29.539       10.146
    158      H          -17.084      -23.641       11.599
    159      H          -18.372      -24.192       12.688
    160      H          -16.776      -23.805       13.326
    161      H          -16.851      -27.601       13.364
    162      H          -16.486      -26.188       14.357
    163      H          -18.147      -26.498       13.855
 $END
       
