!*** FMO 5.2 (Gamess) INPUT generated by Facio 22.1.1.64 ***
 $CONTRL RUNTYP=ENERGY NPRINT=-5 ISPHER=-1 MAXIT=50 $END
 $SYSTEM MWORDS=29 $END
 $GDDI NGROUP=1 $END
 $INTGRL NINTIC=-9000000 $END
 $SCF DIRSCF=.FALSE. NPUNCH=0 $END
!*** NumCPU : 2  MemPerNode : 512MB
 $FMOPRP
    NAODIR=210
    NGRFMO(1)=1, 1, 0, 0, 0,   0, 0, 0, 0, 0
    NPRINT=9
 $END
 $FMO
      SCFTYP(1)=RHF
      MODGRD=10
      MODMUL=0
      MAXCAO=5
      MAXBND=9
      NLAYER=1
      NFRAG=9
      ICHARG(1)=   0,  0,  0, -1, -1,  0,  0,  0,  0
      FRGNAM(1)= Phe-1, Pro-3, Ser-4, Asp-5, Asp-6, 
                 Phe-7, Pro-8, Ser-9, Val-10
      INDAT(1)= 0
                1    -23     26    -40      0
               24     25     41     42     45    -54      0
               43     44     55     56     59    -65      0
               57     58     66     67     70    -77      0
               68     69     78     79     82    -89      0
               80     81     90     91     94   -109      0
               92     93    110    111    114   -123      0
              112    113    124    125    128   -134      0
              126    127    135   -152      0
 $END
 $FMOHYB
 3-21G        9   5
   1 0  -0.070459   0.164841   0.000000   0.000000   0.502116
         0.466939   0.000000   0.000000   0.418036
   0 1  -0.070465   0.164857   0.473392   0.000000  -0.167359
         0.466967   0.394111   0.000000  -0.139327
   0 1  -0.070465   0.164857  -0.236695  -0.409969  -0.167359
         0.466967  -0.197055  -0.341311  -0.139327
   0 1  -0.070465   0.164857  -0.236695   0.409969  -0.167359
         0.466967  -0.197055   0.341311  -0.139327
   0 1   1.006716   0.074826   0.000000   0.000000   0.000000
        -0.143830   0.000000   0.000000  -0.000003
 MINI         5   5
   1 0  -0.104883   0.308874   0.000000   0.000000   0.521806
   0 1  -0.104883   0.308874   0.491961   0.000000  -0.173934
   0 1  -0.104883   0.308876  -0.245980  -0.426050  -0.173933
   0 1  -0.104883   0.308876  -0.245980   0.426050  -0.173933
   0 1   0.988209   0.063992   0.000000   0.000000   0.000000
 $END
 $FMOBND
       -23        24  3-21G      MINI
       -42        43  3-21G      MINI
       -56        57  3-21G      MINI
       -67        68  3-21G      MINI
       -79        80  3-21G      MINI
       -91        92  3-21G      MINI
      -111       112  3-21G      MINI
      -125       126  3-21G      MINI
 $END
 $DATA
 FMO calculation : L_P06_2A.pdb
 C1 
 N.1-1    7
      N21 3
   
 C.1-1    6
      N21 3
   
 O.1-1    8
      N21 3
   
 H.1-1    1
      N21 3
   
 $END
 $FMOXYZ
      1      N          -30.577       -6.371       10.646
      2      C          -31.005       -7.428        9.702
      3      C          -29.906       -8.506        9.650
      4      O          -28.789       -8.242        9.226
      5      C          -31.187       -6.811        8.309
      6      C          -31.892       -7.736        7.371
      7      C          -33.287       -7.800        7.362
      8      C          -31.156       -8.507        6.468
      9      C          -33.943       -8.613        6.440
     10      C          -31.814       -9.315        5.545
     11      C          -33.207       -9.363        5.524
     12      H          -30.343       -6.759       11.557
     13      H          -29.759       -5.883       10.291
     14      H          -31.976       -7.856       10.068
     15      H          -30.198       -6.508        7.895
     16      H          -31.765       -5.859        8.406
     17      H          -33.868       -7.205        8.067
     18      H          -30.066       -8.490        6.503
     19      H          -35.032       -8.656        6.436
     20      H          -31.238       -9.914        4.842
     21      H          -33.718       -9.989        4.795
     22      N          -30.236       -9.730       10.145
     23      C          -29.222      -10.770       10.294
     24      C          -28.793      -11.267        8.906
     25      O          -29.580      -11.337        7.974
     26      C          -29.814      -12.009       10.989
     27      C          -29.921      -11.872       12.514
     28      C          -30.884      -12.952       13.022
     29      C          -28.547      -12.045       13.169
     30      H          -31.160       -9.920       10.570
     31      H          -28.349      -10.350       10.863
     32      H          -30.814      -12.229       10.562
     33      H          -29.204      -12.911       10.742
     34      H          -30.329      -10.866       12.775
     35      H          -31.923      -12.722       12.757
     36      H          -30.647      -13.937       12.603
     37      H          -30.837      -13.047       14.111
     38      H          -27.853      -11.252       12.867
     39      H          -28.620      -11.998       14.261
     40      H          -28.100      -13.010       12.903
     41      N          -27.488      -11.659        8.724
     42      C          -27.200      -12.595        7.625
     43      C          -28.132      -13.807        7.770
     44      O          -28.748      -14.047        8.787
     45      C          -25.739      -13.032        7.834
     46      C          -25.511      -12.886        9.347
     47      C          -26.474      -11.766        9.793
     48      H          -27.369      -12.076        6.647
     49      H          -25.056      -12.374        7.261
     50      H          -25.548      -14.063        7.487
     51      H          -25.759      -13.833        9.867
     52      H          -24.467      -12.642        9.578
     53      H          -26.925      -11.997       10.780
     54      H          -25.954      -10.780        9.865
     55      N          -28.319      -14.574        6.630
     56      C          -29.030      -15.835        6.796
     57      C          -28.031      -16.930        7.207
     58      O          -26.838      -16.741        7.339
     59      C          -29.762      -16.194        5.489
     60      O          -28.744      -16.538        4.568
     61      H          -27.678      -14.531        5.848
     62      H          -29.788      -15.727        7.634
     63      H          -30.452      -17.048        5.629
     64      H          -30.320      -15.325        5.091
     65      H          -29.157      -16.984        3.789
     66      N          -28.609      -18.152        7.457
     67      C          -27.854      -19.259        8.040
     68      C          -27.076      -20.008        6.941
     69      O          -27.303      -21.169        6.677
     70      C          -28.890      -20.184        8.700
     71      C          -28.341      -21.411        9.348
     72      O          -27.230      -21.154       10.082
     73      O          -28.830      -22.508        9.347
     74      H          -29.601      -18.307        7.302
     75      H          -27.119      -18.873        8.805
     76      H          -29.644      -20.507        7.941
     77      H          -29.444      -19.599        9.479
     78      N          -26.057      -19.295        6.341
     79      C          -25.404      -19.850        5.159
     80      C          -23.988      -20.351        5.487
     81      O          -23.270      -20.775        4.598
     82      C          -25.316      -18.822        4.022
     83      C          -26.677      -18.545        3.483
     84      O          -27.617      -19.309        3.432
     85      O          -26.778      -17.303        2.986
     86      H          -25.970      -18.295        6.511
     87      H          -25.980      -20.766        4.793
     88      H          -24.776      -17.900        4.337
     89      H          -24.669      -19.216        3.187
     90      N          -23.587      -20.331        6.797
     91      C          -22.324      -20.967        7.138
     92      C          -22.596      -22.468        7.366
     93      O          -23.370      -22.826        8.252
     94      C          -21.740      -20.473        8.477
     95      C          -21.395      -19.022        8.428
     96      C          -20.099      -18.615        8.107
     97      C          -22.372      -18.069        8.730
     98      C          -19.781      -17.259        8.098
     99      C          -22.053      -16.714        8.707
    100      C          -20.755      -16.308        8.396
    101      H          -24.205      -20.072        7.556
    102      H          -21.582      -20.790        6.311
    103      H          -20.849      -21.092        8.725
    104      H          -22.459      -20.675        9.308
    105      H          -19.331      -19.355        7.871
    106      H          -23.386      -18.394        8.978
    107      H          -18.763      -16.949        7.863
    108      H          -22.824      -15.976        8.920
    109      H          -20.502      -15.253        8.382
    110      N          -21.930      -23.374        6.610
    111      C          -21.902      -24.794        6.968
    112      C          -21.454      -24.919        8.425
    113      O          -20.725      -24.106        8.982
    114      C          -20.851      -25.439        6.033
    115      C          -20.775      -24.476        4.838
    116      C          -21.072      -23.091        5.444
    117      H          -22.924      -25.239        6.815
    118      H          -21.132      -26.462        5.733
    119      H          -19.868      -25.534        6.535
    120      H          -21.534      -24.736        4.074
    121      H          -19.797      -24.512        4.334
    122      H          -20.135      -22.589        5.774
    123      H          -21.609      -22.423        4.729
    124      N          -21.915      -26.018        9.097
    125      C          -21.304      -26.333       10.383
    126      C          -19.798      -26.564       10.138
    127      O          -19.346      -26.709        9.008
    128      C          -22.013      -27.548       11.010
    129      O          -21.480      -27.810       12.280
    130      H          -22.449      -26.747        8.638
    131      H          -21.420      -25.438       11.069
    132      H          -23.104      -27.368       11.107
    133      H          -21.837      -28.490       10.447
    134      H          -21.463      -27.014       12.863
    135      N          -18.974      -26.454       11.213
    136      C          -17.534      -26.312       11.016
    137      C          -16.840      -27.603       10.585
    138      O          -15.753      -27.609       10.066
    139      C          -16.847      -25.712       12.269
    140      C          -17.300      -24.262       12.476
    141      C          -17.106      -26.544       13.523
    142      O          -17.530      -28.731       10.765
    143      H          -19.336      -26.374       12.157
    144      H          -17.367      -25.602       10.143
    145      H          -15.737      -25.713       12.059
    146      H          -17.166      -29.539       10.146
    147      H          -17.084      -23.641       11.599
    148      H          -18.372      -24.192       12.688
    149      H          -16.776      -23.805       13.326
    150      H          -16.851      -27.601       13.364
    151      H          -16.486      -26.188       14.357
    152      H          -18.147      -26.498       13.855
 $END
       
