!*** FMO 5.2 (Gamess) INPUT generated by Facio 22.1.1.64 ***
 $CONTRL RUNTYP=ENERGY NPRINT=-5 ISPHER=-1 MAXIT=50 $END
 $SYSTEM MWORDS=29 $END
 $GDDI NGROUP=1 $END
 $INTGRL NINTIC=-9000000 $END
 $SCF DIRSCF=.FALSE. NPUNCH=0 $END
!*** NumCPU : 2  MemPerNode : 512MB
 $FMOPRP
    NAODIR=210
    NGRFMO(1)=1, 1, 0, 0, 0,   0, 0, 0, 0, 0
    NPRINT=9
 $END
 $FMO
      SCFTYP(1)=RHF
      MODGRD=10
      MODMUL=0
      MAXCAO=5
      MAXBND=166
      NLAYER=1
      NFRAG=166
      ICHARG(1)=   0,  0,  0,  1,  0,  0,  0,  0,  0,  0,
                   0,  0,  0,  0,  0,  0,  0,  0,  0,  0,
                   0,  0,  0,  0,  0,  0,  0,  0,  0,  0,
                   0,  0,  1,  0,  0,  0,  0,  0,  0,  0,
                   0,  0,  0,  0,  0,  0,  0,  0,  0,  0,
                   0,  0, -1,  0,  0, -1,  0,  0, -1,  0,
                  -1,  0,  1,  1,  0,  1,  0,  0,  0,  0,
                   0,  0,  1,  0, -1,  0,  0,  0,  0,  1,
                   0,  0,  0,  0,  0,  0,  0,  0,  1,  0,
                   0,  0,  0,  0,  0,  0,  0,  0,  0,  0,
                   0,  0,  0,  0,  0,  0,  0,  0,  0,  0,
                   0,  0,  0,  0,  0,  0,  0,  0,  0,  0,
                   0,  0,  0,  0,  0,  0,  0,  0,  0,  0,
                   0,  0,  0,  0,  0,  1,  0,  1,  0, -1,
                   0,  0,  0,  0,  0, -1,  0,  0,  1,  0,
                   0,  0,  0,  0,  0,  0, -1,  0,  0,  1,
                   1,  0,  0,  0,  0,  0
      FRGNAM(1)= Ser-1, Ser-3, Met-4, Arg-5, Tyr-6, 
                 Phe-7, Phe-8, Thr-9, Ser-10, Val-11, 
                 Ser-12, Arg-13, Pro-14, Gly-15, Arg-16, 
                 Gly-17, Glu-18, Pro-19, Arg-20, Phe-21, 
                 Ile-22, Ala-23, Val-24, Gly-25, Tyr-26, 
                 Val-27, Asp-28, Asp-29, Thr-30, Gln-31, 
                 Phe-32, Val-33, Arg-34, Phe-35, Asp-36, 
                 Ser-37, Asp-38, Ala-39, Ala-40, Ser-41, 
                 Gln-42, Arg-43, Met-44, Glu-45, Pro-46, 
                 Arg-47, Ala-48, Pro-49, Trp-50, Ile-51, 
                 Glu-52, Gln-53, Glu-54, Gly-55, Pro-56, 
                 Glu-57, Tyr-58, Trp-59, Asp-60, Gly-61, 
                 Glu-62, Thr-63, Arg-64, Lys-65, Val-66, 
                 Lys-67, Ala-68, His-69, Ser-70, Gln-71, 
                 Thr-72, His-73, Arg-74, Val-75, Asp-76, 
                 Leu-77, Gly-78, Thr-79, Leu-80, Arg-81, 
                 Gly-82, Tyr-83, Tyr-84, Asn-85, His-86, 
                 Thr-87, Val-88, Gln-89, Arg-90, Met-91, 
                 Cys-92, Gly-93, Cys-94, Asp-95, Val-96, 
                 Gly-97, Ser-98, Asp-99, Trp-100, Arg-101, 
                 Phe-102, Leu-103, Arg-104, Gly-105, Tyr-106, 
                 His-107, Gln-108, Tyr-109, Ala-110, Tyr-111, 
                 Asp-112, Gly-113, Lys-114, Asp-115, Tyr-116, 
                 Ile-117, Ala-118, Leu-119, Lys-120, Glu-121, 
                 Asp-122, Leu-123, Arg-124, Ser-125, Trp-126, 
                 Thr-127, Ala-128, Ala-129, Asp-130, Met-131, 
                 Ala-132, Ala-133, Gln-134, Thr-135, Thr-136, 
                 Lys-137, His-138, Lys-139, Trp-140, Glu-141, 
                 Ala-142, Ala-143, His-144, Val-145, Ala-146, 
                 Glu-147, Gln-148, Leu-149, Arg-150, Ala-151, 
                 Tyr-152, Leu-153, Glu-154, Gly-155, Thr-156, 
                 Val-158, Glu-159, Trp-160, Leu-161, Arg-162, 
                 Arg-163, Tyr-164, Leu-165, Glu-166, Asn-167, 
                 Gly-168
      INDAT(1)= 0
                1    -14     17    -29      0
               15     16     30     31     34    -40      0
               32     33     41     42     45    -57      0
               43     44     58     59     62    -81      0
               60     61     82     83     86   -102      0
               84     85    103    104    107   -122      0
              105    106    123    124    127   -142      0
              125    126    143    144    147   -156      0
              145    146    157    158    161   -167      0
              159    160    168    169    172   -183      0
              170    171    184    185    188   -194      0
              186    187    195    196    199   -217      0
              197    198    218    219    222   -231      0
              220    221    232    233    236   -238      0
              234    235    239    240    243   -261      0
              241    242    262    263    266   -268      0
              264    265    269    270    273   -284      0
              271    272    285    286    289   -298      0
              287    288    299    300    303   -321      0
              301    302    322    323    326   -341      0
              324    325    342    343    346   -360      0
              344    345    361    362    365   -370      0
              363    364    371    372    375   -386      0
              373    374    387    388    391   -393      0
              389    390    394    395    398   -414      0
              396    397    415    416    419   -430      0
              417    418    431    432    435   -443      0
              433    434    444    445    448   -456      0
              446    447    457    458    461   -470      0
              459    460    471    472    475   -487      0
              473    474    488    489    492   -507      0
              490    491    508    509    512   -523      0
              510    511    524    525    528   -547      0
              526    527    548    549    552   -567      0
              550    551    568    569    572   -580      0
              570    571    581    582    585   -591      0
              583    584    592    593    596   -604      0
              594    595    605    606    609   -614      0
              607    608    615    616    619   -624      0
              617    618    625    626    629   -635      0
              627    628    636    637    640   -652      0
              638    639    653    654    657   -675      0
              655    656    676    677    680   -692      0
              678    679    693    694    697   -708      0
              695    696    709    710    713   -722      0
              711    712    723    724    727   -745      0
              725    726    746    747    750   -755      0
              748    749    756    757    760   -769      0
              758    759    770    771    774   -793      0
              772    773    794    795    798   -812      0
              796    797    813    814    817   -828      0
              815    816    829    830    833   -845      0
              831    832    846    847    850   -860      0
              848    849    861    862    865   -867      0
              863    864    868    869    872   -881      0
              870    871    882    883    886   -896      0
              884    885    897    898    901   -917      0
              899    900    918    919    922   -941      0
              920    921    942    943    946   -953      0
              944    945    954    955    958   -960      0
              956    957    961    962    965   -975      0
              963    964    976    977    980   -989      0
              978    979    990    991    994  -1013      0
              992    993   1014   1015   1018  -1035      0
             1016   1017   1036   1037   1040  -1051      0
             1038   1039   1052   1053   1056  -1073      0
             1054   1055   1074   1075   1078  -1083      0
             1076   1077   1084   1085   1088  -1100      0
             1086   1087   1101   1102   1105  -1111      0
             1103   1104   1112   1113   1116  -1128      0
             1114   1115   1129   1130   1133  -1142      0
             1131   1132   1143   1144   1147  -1159      0
             1145   1146   1160   1161   1164  -1183      0
             1162   1163   1184   1185   1188  -1199      0
             1186   1187   1200   1201   1204  -1211      0
             1202   1203   1212   1213   1216  -1230      0
             1214   1215   1231   1232   1235  -1237      0
             1233   1234   1238   1239   1242  -1251      0
             1240   1241   1252   1253   1256  -1270      0
             1254   1255   1271   1272   1275  -1294      0
             1273   1274   1295   1296   1299  -1301      0
             1297   1298   1302   1303   1306  -1322      0
             1304   1305   1323   1324   1327  -1343      0
             1325   1326   1344  -1359      0
             1360   1361   1364  -1377      0
             1362   1363   1378   1379   1382  -1391      0
             1380   1381   1392   1393   1396  -1407      0
             1394   1395   1408   1409   1412  -1424      0
             1410   1411   1425   1426   1429  -1448      0
             1427   1428   1449   1450   1453  -1465      0
             1451   1452   1466   1467   1470  -1476      0
             1468   1469   1477   1478   1481  -1483      0
             1479   1480   1484   1485   1488  -1493   2469   2470
             2481   2482   2485  -2490      0
             1486   1487   1494   1495   1498  -1506      0
             1496   1497   1507   1508   1511  -1522      0
             1509   1510   1523   1524   1527  -1529      0
             1525   1526   1530   1531   1534  -1540      0
             1532   1533   1541   1542   1545  -1553      0
             1543   1544   1554   1555   1558  -1577      0
             1556   1557   1578   1579   1582  -1600      0
             1580   1581   1601   1602   1605  -1620      0
             1603   1604   1621   1622   1625  -1639      0
             1623   1624   1640   1641   1644  -1662      0
             1642   1643   1663   1664   1667  -1669      0
             1665   1666   1670   1671   1674  -1690      0
             1672   1673   1691   1692   1695  -1707      0
             1693   1694   1708   1709   1712  -1724      0
             1710   1711   1725   1726   1729  -1745      0
             1727   1728   1746   1747   1750  -1755      0
             1748   1749   1756   1757   1760  -1776      0
             1758   1759   1777   1778   1781  -1789      0
             1779   1780   1790   1791   1794  -1796      0
             1792   1793   1797   1798   1801  -1817      0
             1799   1800   1818   1819   1822  -1830      0
             1820   1821   1831   1832   1835  -1851      0
             1833   1834   1852   1853   1856  -1870      0
             1854   1855   1871   1872   1875  -1880      0
             1873   1874   1881   1882   1885  -1899      0
             1883   1884   1900   1901   1904  -1920      0
             1902   1903   1921   1922   1925  -1936      0
             1923   1924   1937   1938   1941  -1949      0
             1939   1940   1950   1951   1954  -1968      0
             1952   1953   1969   1970   1973  -1991      0
             1971   1972   1992   1993   1996  -2002      0
             1994   1995   2003   2004   2007  -2026      0
             2005   2006   2027   2028   2031  -2040      0
             2029   2030   2041   2042   2045  -2050      0
             2043   2044   2051   2052   2055  -2060      0
             2053   2054   2061   2062   2065  -2073      0
             2063   2064   2074   2075   2078  -2090      0
             2076   2077   2091   2092   2095  -2100      0
             2093   2094   2101   2102   2105  -2110      0
             2103   2104   2111   2112   2115  -2127      0
             2113   2114   2128   2129   2132  -2141      0
             2130   2131   2142   2143   2146  -2155      0
             2144   2145   2156   2157   2160  -2177      0
             2158   2159   2178   2179   2182  -2194      0
             2180   2181   2195   2196   2199  -2216      0
             2197   2198   2217   2218   2221  -2240      0
             2219   2220   2241   2242   2245  -2255      0
             2243   2244   2256   2257   2260  -2265      0
             2258   2259   2266   2267   2270  -2275      0
             2268   2269   2276   2277   2280  -2292      0
             2278   2279   2293   2294   2297  -2308      0
             2295   2296   2309   2310   2313  -2318      0
             2311   2312   2319   2320   2323  -2333      0
             2321   2322   2334   2335   2338  -2350      0
             2336   2337   2351   2352   2355  -2369      0
             2353   2354   2370   2371   2374  -2393      0
             2372   2373   2394   2395   2398  -2403      0
             2396   2397   2404   2405   2408  -2424      0
             2406   2407   2425   2426   2429  -2443      0
             2427   2428   2444   2445   2448  -2459      0
             2446   2447   2460   2461   2464  -2466      0
             2462   2463   2467   2468   2471  -2480      0
             2483   2484   2491   2492   2495  -2506      0
             2493   2494   2507   2508   2511  -2521      0
             2509   2510   2522   2523   2526  -2545      0
             2524   2525   2546   2547   2550  -2564      0
             2548   2549   2565   2566   2569  -2588      0
             2567   2568   2589   2590   2593  -2612      0
             2591   2592   2613   2614   2617  -2633      0
             2615   2616   2634   2635   2638  -2652      0
             2636   2637   2653   2654   2657  -2668      0
             2655   2656   2669   2670   2673  -2682      0
             2671   2672   2683  -2691      0
 $END
 $FMOHYB
 3-21G        9   5
   1 0  -0.070459   0.164841   0.000000   0.000000   0.502116
         0.466939   0.000000   0.000000   0.418036
   0 1  -0.070465   0.164857   0.473392   0.000000  -0.167359
         0.466967   0.394111   0.000000  -0.139327
   0 1  -0.070465   0.164857  -0.236695  -0.409969  -0.167359
         0.466967  -0.197055  -0.341311  -0.139327
   0 1  -0.070465   0.164857  -0.236695   0.409969  -0.167359
         0.466967  -0.197055   0.341311  -0.139327
   0 1   1.006716   0.074826   0.000000   0.000000   0.000000
        -0.143830   0.000000   0.000000  -0.000003
 MINI         5   5
   1 0  -0.104883   0.308874   0.000000   0.000000   0.521806
   0 1  -0.104883   0.308874   0.491961   0.000000  -0.173934
   0 1  -0.104883   0.308876  -0.245980  -0.426050  -0.173933
   0 1  -0.104883   0.308876  -0.245980   0.426050  -0.173933
   0 1   0.988209   0.063992   0.000000   0.000000   0.000000
 $END
 $FMOBND
       -14        15  3-21G      MINI
       -31        32  3-21G      MINI
       -42        43  3-21G      MINI
       -59        60  3-21G      MINI
       -83        84  3-21G      MINI
      -104       105  3-21G      MINI
      -124       125  3-21G      MINI
      -144       145  3-21G      MINI
      -158       159  3-21G      MINI
      -169       170  3-21G      MINI
      -185       186  3-21G      MINI
      -196       197  3-21G      MINI
      -219       220  3-21G      MINI
      -233       234  3-21G      MINI
      -240       241  3-21G      MINI
      -263       264  3-21G      MINI
      -270       271  3-21G      MINI
      -286       287  3-21G      MINI
      -300       301  3-21G      MINI
      -323       324  3-21G      MINI
      -343       344  3-21G      MINI
      -362       363  3-21G      MINI
      -372       373  3-21G      MINI
      -388       389  3-21G      MINI
      -395       396  3-21G      MINI
      -416       417  3-21G      MINI
      -432       433  3-21G      MINI
      -445       446  3-21G      MINI
      -458       459  3-21G      MINI
      -472       473  3-21G      MINI
      -489       490  3-21G      MINI
      -509       510  3-21G      MINI
      -525       526  3-21G      MINI
      -549       550  3-21G      MINI
      -569       570  3-21G      MINI
      -582       583  3-21G      MINI
      -593       594  3-21G      MINI
      -606       607  3-21G      MINI
      -616       617  3-21G      MINI
      -626       627  3-21G      MINI
      -637       638  3-21G      MINI
      -654       655  3-21G      MINI
      -677       678  3-21G      MINI
      -694       695  3-21G      MINI
      -710       711  3-21G      MINI
      -724       725  3-21G      MINI
      -747       748  3-21G      MINI
      -757       758  3-21G      MINI
      -771       772  3-21G      MINI
      -795       796  3-21G      MINI
      -814       815  3-21G      MINI
      -830       831  3-21G      MINI
      -847       848  3-21G      MINI
      -862       863  3-21G      MINI
      -869       870  3-21G      MINI
      -883       884  3-21G      MINI
      -898       899  3-21G      MINI
      -919       920  3-21G      MINI
      -943       944  3-21G      MINI
      -955       956  3-21G      MINI
      -962       963  3-21G      MINI
      -977       978  3-21G      MINI
      -991       992  3-21G      MINI
     -1015      1016  3-21G      MINI
     -1037      1038  3-21G      MINI
     -1053      1054  3-21G      MINI
     -1075      1076  3-21G      MINI
     -1085      1086  3-21G      MINI
     -1102      1103  3-21G      MINI
     -1113      1114  3-21G      MINI
     -1130      1131  3-21G      MINI
     -1144      1145  3-21G      MINI
     -1161      1162  3-21G      MINI
     -1185      1186  3-21G      MINI
     -1201      1202  3-21G      MINI
     -1213      1214  3-21G      MINI
     -1232      1233  3-21G      MINI
     -1239      1240  3-21G      MINI
     -1253      1254  3-21G      MINI
     -1272      1273  3-21G      MINI
     -1296      1297  3-21G      MINI
     -1303      1304  3-21G      MINI
     -1324      1325  3-21G      MINI
     -1361      1362  3-21G      MINI
     -1379      1380  3-21G      MINI
     -1393      1394  3-21G      MINI
     -1409      1410  3-21G      MINI
     -1426      1427  3-21G      MINI
     -1450      1451  3-21G      MINI
     -1467      1468  3-21G      MINI
     -1478      1479  3-21G      MINI
     -1485      1486  3-21G      MINI
     -1495      1496  3-21G      MINI
     -1508      1509  3-21G      MINI
     -1524      1525  3-21G      MINI
     -1531      1532  3-21G      MINI
     -1542      1543  3-21G      MINI
     -1555      1556  3-21G      MINI
     -1579      1580  3-21G      MINI
     -1602      1603  3-21G      MINI
     -1622      1623  3-21G      MINI
     -1641      1642  3-21G      MINI
     -1664      1665  3-21G      MINI
     -1671      1672  3-21G      MINI
     -1692      1693  3-21G      MINI
     -1709      1710  3-21G      MINI
     -1726      1727  3-21G      MINI
     -1747      1748  3-21G      MINI
     -1757      1758  3-21G      MINI
     -1778      1779  3-21G      MINI
     -1791      1792  3-21G      MINI
     -1798      1799  3-21G      MINI
     -1819      1820  3-21G      MINI
     -1832      1833  3-21G      MINI
     -1853      1854  3-21G      MINI
     -1872      1873  3-21G      MINI
     -1882      1883  3-21G      MINI
     -1901      1902  3-21G      MINI
     -1922      1923  3-21G      MINI
     -1938      1939  3-21G      MINI
     -1951      1952  3-21G      MINI
     -1970      1971  3-21G      MINI
     -1993      1994  3-21G      MINI
     -2004      2005  3-21G      MINI
     -2028      2029  3-21G      MINI
     -2042      2043  3-21G      MINI
     -2052      2053  3-21G      MINI
     -2062      2063  3-21G      MINI
     -2075      2076  3-21G      MINI
     -2092      2093  3-21G      MINI
     -2102      2103  3-21G      MINI
     -2112      2113  3-21G      MINI
     -2129      2130  3-21G      MINI
     -2143      2144  3-21G      MINI
     -2157      2158  3-21G      MINI
     -2179      2180  3-21G      MINI
     -2196      2197  3-21G      MINI
     -2218      2219  3-21G      MINI
     -2242      2243  3-21G      MINI
     -2257      2258  3-21G      MINI
     -2267      2268  3-21G      MINI
     -2277      2278  3-21G      MINI
     -2294      2295  3-21G      MINI
     -2310      2311  3-21G      MINI
     -2320      2321  3-21G      MINI
     -2335      2336  3-21G      MINI
     -2352      2353  3-21G      MINI
     -2371      2372  3-21G      MINI
     -2395      2396  3-21G      MINI
     -2405      2406  3-21G      MINI
     -2426      2427  3-21G      MINI
     -2445      2446  3-21G      MINI
     -2461      2462  3-21G      MINI
     -2468      2469  3-21G      MINI
     -2482      2483  3-21G      MINI
     -2492      2493  3-21G      MINI
     -2508      2509  3-21G      MINI
     -2523      2524  3-21G      MINI
     -2547      2548  3-21G      MINI
     -2566      2567  3-21G      MINI
     -2590      2591  3-21G      MINI
     -2614      2615  3-21G      MINI
     -2635      2636  3-21G      MINI
     -2654      2655  3-21G      MINI
     -2670      2671  3-21G      MINI
 $END
 $DATA
 FMO calculation : R_noW.pdb
 C1 
 N.1-1    7
      N21 3
   
 C.1-1    6
      N21 3
   
 O.1-1    8
      N21 3
   
 H.1-1    1
      N21 3
   
 S.1-1   16
      N21 3
   
 $END
 $FMOXYZ
      1      N          -18.865        7.809       11.128
      2      C          -18.932        6.392       10.725
      3      C          -19.952        5.637       11.590
      4      O          -20.211        5.961       12.736
      5      C          -17.609        5.612       10.893
      6      O          -16.612        6.324       10.180
      7      H          -19.565        8.015       11.833
      8      H          -17.960        8.049       11.512
      9      H          -19.240        6.386        9.640
     10      H          -17.299        5.557       11.952
     11      H          -17.702        4.593       10.468
     12      H          -15.815        5.750       10.114
     13      N          -20.525        4.520       11.030
     14      C          -21.516        3.776       11.792
     15      C          -21.274        2.279       11.565
     16      O          -20.773        1.853       10.539
     17      C          -22.967        4.105       11.361
     18      C          -23.280        5.513       11.658
     19      N          -23.691        5.958       12.920
     20      C          -23.188        6.655       10.859
     21      N          -23.529        7.764       11.612
     22      C          -23.840        7.336       12.848
     23      H          -20.325        4.215       10.074
     24      H          -21.378        4.035       12.887
     25      H          -23.683        3.413       11.856
     26      H          -23.084        3.914       10.267
     27      H          -23.902        5.373       13.702
     28      H          -22.927        6.743        9.822
     29      H          -24.156        7.948       13.677
     30      N          -21.704        1.424       12.541
     31      C          -21.500       -0.008       12.367
     32      C          -22.791       -0.735       12.746
     33      O          -23.571       -0.336       13.598
     34      C          -20.349       -0.524       13.249
     35      O          -20.777       -0.405       14.601
     36      H          -22.069        1.718       13.439
     37      H          -21.229       -0.230       11.281
     38      H          -20.121       -1.584       13.034
     39      H          -19.434        0.088       13.114
     40      H          -20.059       -0.742       15.185
     41      N          -23.047       -1.882       12.052
     42      C          -24.073       -2.802       12.542
     43      C          -23.346       -4.128       12.821
     44      O          -22.569       -4.620       12.012
     45      C          -25.173       -3.024       11.494
     46      C          -26.178       -4.040       12.018
     47      S          -27.701       -4.045       11.019
     48      C          -27.213       -4.805        9.449
     49      H          -22.408       -2.239       11.337
     50      H          -24.543       -2.391       13.488
     51      H          -24.729       -3.353       10.532
     52      H          -25.654       -2.044       11.274
     53      H          -25.737       -5.054       12.058
     54      H          -26.488       -3.800       13.060
     55      H          -28.115       -5.054        8.877
     56      H          -26.626       -4.105        8.835
     57      H          -26.635       -5.725        9.585
     58      N          -23.592       -4.713       14.028
     59      C          -22.841       -5.902       14.417
     60      C          -23.800       -6.859       15.135
     61      O          -24.696       -6.475       15.868
     62      C          -21.710       -5.573       15.411
     63      C          -20.676       -4.641       14.781
     64      C          -19.480       -4.494       15.739
     65      N          -18.475       -3.574       15.202
     66      C          -18.210       -2.332       15.748
     67      N          -18.676       -2.095       17.071
     68      N          -17.493       -1.497       15.041
     69      H          -24.178       -4.275       14.746
     70      H          -22.408       -6.393       13.493
     71      H          -21.227       -6.519       15.734
     72      H          -22.131       -5.104       16.325
     73      H          -20.341       -5.027       13.799
     74      H          -21.127       -3.650       14.581
     75      H          -19.833       -4.191       16.748
     76      H          -18.968       -5.480       15.876
     77      H          -18.286       -3.673       14.205
     78      H          -18.315       -1.283       17.531
     79      H          -19.665       -2.238       17.236
     80      H          -17.105       -0.676       15.462
     81      H          -17.185       -1.483       13.986
     82      N          -23.556       -8.188       14.942
     83      C          -24.307       -9.194       15.682
     84      C          -23.271      -10.050       16.438
     85      O          -22.217      -10.396       15.931
     86      C          -25.105      -10.116       14.739
     87      C          -26.391       -9.463       14.338
     88      C          -27.514       -9.573       15.162
     89      C          -26.472       -8.736       13.144
     90      C          -28.722       -8.984       14.798
     91      C          -27.666       -8.143       12.758
     92      C          -28.780       -8.273       13.598
     93      O          -29.898       -7.632       13.205
     94      H          -22.784       -8.521       14.364
     95      H          -25.017       -8.688       16.407
     96      H          -25.297      -11.088       15.241
     97      H          -24.487      -10.376       13.854
     98      H          -27.446      -10.119       16.103
     99      H          -25.587       -8.629       12.513
    100      H          -29.602       -9.075       15.427
    101      H          -27.748       -7.590       11.825
    102      H          -30.771       -8.017       13.559
    103      N          -23.636      -10.401       17.708
    104      C          -22.748      -11.169       18.570
    105      C          -23.552      -12.409       19.018
    106      O          -24.626      -12.311       19.598
    107      C          -22.376      -10.391       19.849
    108      C          -21.492       -9.220       19.561
    109      C          -22.017       -8.050       19.005
    110      C          -20.134       -9.282       19.881
    111      C          -21.187       -6.958       18.762
    112      C          -19.310       -8.182       19.653
    113      C          -19.833       -7.021       19.086
    114      H          -24.480      -10.020       18.149
    115      H          -21.817      -11.463       18.006
    116      H          -21.895      -11.086       20.570
    117      H          -23.306      -10.057       20.364
    118      H          -23.079       -7.989       18.765
    119      H          -19.719      -10.187       20.320
    120      H          -21.599       -6.044       18.335
    121      H          -18.259       -8.225       19.930
    122      H          -19.187       -6.163       18.905
    123      N          -22.991      -13.619       18.748
    124      C          -23.681      -14.868       19.055
    125      C          -22.793      -15.635       20.057
    126      O          -21.602      -15.808       19.857
    127      C          -23.773      -15.788       17.824
    128      C          -24.634      -15.296       16.708
    129      C          -25.525      -14.233       16.846
    130      C          -24.546      -15.966       15.481
    131      C          -26.306      -13.827       15.765
    132      C          -25.331      -15.564       14.407
    133      C          -26.208      -14.489       14.545
    134      H          -22.132      -13.714       18.201
    135      H          -24.702      -14.661       19.484
    136      H          -24.138      -16.795       18.147
    137      H          -22.741      -15.997       17.446
    138      H          -25.619      -13.708       17.797
    139      H          -23.868      -16.812       15.377
    140      H          -26.993      -12.991       15.878
    141      H          -25.272      -16.091       13.455
    142      H          -26.818      -14.175       13.698
    143      N          -23.443      -16.188       21.122
    144      C          -22.720      -17.043       22.053
    145      C          -23.550      -18.323       22.208
    146      O          -24.733      -18.282       22.497
    147      C          -22.615      -16.375       23.461
    148      O          -21.906      -15.171       23.319
    149      C          -21.808      -17.260       24.403
    150      H          -24.414      -15.968       21.362
    151      H          -21.683      -17.252       21.662
    152      H          -23.629      -16.156       23.866
    153      H          -22.507      -14.455       22.992
    154      H          -21.570      -16.717       25.329
    155      H          -22.363      -18.164       24.679
    156      H          -20.852      -17.565       23.963
    157      N          -22.903      -19.510       22.003
    158      C          -23.579      -20.773       22.271