!*** FMO 5.2 (Gamess) INPUT generated by Facio 22.1.1.64 ***
 $CONTRL RUNTYP=ENERGY NPRINT=-5 ISPHER=-1 MAXIT=50 $END
 $SYSTEM MWORDS=29 $END
 $GDDI NGROUP=1 $END
 $INTGRL NINTIC=-9000000 $END
 $SCF DIRSCF=.FALSE. NPUNCH=0 $END
!*** NumCPU : 2  MemPerNode : 512MB
 $FMOPRP
    NAODIR=210
    NGRFMO(1)=1, 1, 0, 0, 0,   0, 0, 0, 0, 0
    NPRINT=9
 $END
 $FMO
      SCFTYP(1)=RHF
      MODGRD=10
      MODMUL=0
      MAXCAO=5
      MAXBND=44
      NLAYER=1
      NFRAG=46
      ICHARG(1)=   0,  0, -1,  0,  0,  0,  0,  0,  0,  0,
                   0,  0,  0, -1,  0,  0, -1,  0,  0, -1,
                   0,  0,  1,  0,  0,  0, -1,  0,  0,  0,
                   1,  0, -1,  0,  0,  0,  0,  0,  0,  0,
                   1,  0,  0,  0,  0,  0
      FRGNAM(1)= Ala-1, Phe-3, Glu-4, Ala-5, Gln-6, 
                 Gly-7, Ala-8, Leu-9, Ala-10, Asn-11, 
                 Ile-12, Ala-13, Val-14, Asp-15, Gln-16, 
                 Lys-17, Asp-18, Ile-19, Leu-20, Glu-21, 
                 Gln-22, Ala-23, Arg-24, Ala-25, Ala-26, 
                 Val-27, Asp-28, Thr-29, Tyr-30, Cys-31, 
                 Arg-32, His-33, Glu-34, Asn-35, Pro-36, 
                 Val-37, Ala-38, His-39, Phe-40, Phe-41, 
                 Lys-42, Asn-43, Ile-44, Val-45, Thr-46, 
                 Pro-47
      INDAT(1)= 0
                1    -13     16    -22      0
               14     15     23     24     27    -42      0
               25     26     43     44     47    -57      0
               45     46     58     59     62    -67      0
               60     61     68     69     72    -84      0
               70     71     85     86     89    -91      0
               87     88     92     93     96   -101      0
               94     95    102    103    106   -120      0
              104    105    121    122    125   -130      0
              123    124    131    132    135   -144      0
              133    134    145    146    149   -163      0
              147    148    164    165    168   -173      0
              166    167    174    175    178   -189      0
              176    177    190   -203      0
              204    205    208   -221      0
              206    207    222    223    226   -242      0
              224    225    243    244    247   -254      0
              245    246    255    256    259   -273      0
              257    258    274    275    278   -292      0
              276    277    293    294    297   -307      0
              295    296    308    309    312   -324      0
              310    311    325    326    329   -334      0
              327    328    335    336    339   -358      0
              337    338    359    360    363   -368      0
              361    362    369    370    373   -378      0
              371    372    379    380    383   -394      0
              381    382    395    396    399   -406      0
              397    398    407    408    411   -420      0
              409    410    421    422    425   -441      0
              423    424    442    443    446   -452      0
              444    445    453    454    457   -476      0
              455    456    477   -495      0
              496    497    500   -511      0
              498    499    512    513    516   -525      0
              514    515    526    527    530   -539      0
              528    529    540    541    544   -555      0
              542    543    556    557    560   -565      0
              558    559    566    567    570   -582      0
              568    569    583    584    587   -602      0
              585    586    603    604    607   -622      0
              605    606    623    624    627   -644      0
              625    626    645    646    649   -658      0
              647    648    659    660    663   -677      0
              661    662    678    679    682   -693      0
              680    681    694    695    698   -707      0
              696    697    708   -723      0
 $END
 $FMOHYB
 3-21G        9   5
   1 0  -0.070459   0.164841   0.000000   0.000000   0.502116
         0.466939   0.000000   0.000000   0.418036
   0 1  -0.070465   0.164857   0.473392   0.000000  -0.167359
         0.466967   0.394111   0.000000  -0.139327
   0 1  -0.070465   0.164857  -0.236695  -0.409969  -0.167359
         0.466967  -0.197055  -0.341311  -0.139327
   0 1  -0.070465   0.164857  -0.236695   0.409969  -0.167359
         0.466967  -0.197055   0.341311  -0.139327
   0 1   1.006716   0.074826   0.000000   0.000000   0.000000
        -0.143830   0.000000   0.000000  -0.000003
 MINI         5   5
   1 0  -0.104883   0.308874   0.000000   0.000000   0.521806
   0 1  -0.104883   0.308874   0.491961   0.000000  -0.173934
   0 1  -0.104883   0.308876  -0.245980  -0.426050  -0.173933
   0 1  -0.104883   0.308876  -0.245980   0.426050  -0.173933
   0 1   0.988209   0.063992   0.000000   0.000000   0.000000
 $END
 $FMOBND
       -13        14  3-21G      MINI
       -24        25  3-21G      MINI
       -44        45  3-21G      MINI
       -59        60  3-21G      MINI
       -69        70  3-21G      MINI
       -86        87  3-21G      MINI
       -93        94  3-21G      MINI
      -103       104  3-21G      MINI
      -122       123  3-21G      MINI
      -132       133  3-21G      MINI
      -146       147  3-21G      MINI
      -165       166  3-21G      MINI
      -175       176  3-21G      MINI
      -205       206  3-21G      MINI
      -223       224  3-21G      MINI
      -244       245  3-21G      MINI
      -256       257  3-21G      MINI
      -275       276  3-21G      MINI
      -294       295  3-21G      MINI
      -309       310  3-21G      MINI
      -326       327  3-21G      MINI
      -336       337  3-21G      MINI
      -360       361  3-21G      MINI
      -370       371  3-21G      MINI
      -380       381  3-21G      MINI
      -396       397  3-21G      MINI
      -408       409  3-21G      MINI
      -422       423  3-21G      MINI
      -443       444  3-21G      MINI
      -454       455  3-21G      MINI
      -497       498  3-21G      MINI
      -513       514  3-21G      MINI
      -527       528  3-21G      MINI
      -541       542  3-21G      MINI
      -557       558  3-21G      MINI
      -567       568  3-21G      MINI
      -584       585  3-21G      MINI
      -604       605  3-21G      MINI
      -624       625  3-21G      MINI
      -646       647  3-21G      MINI
      -660       661  3-21G      MINI
      -679       680  3-21G      MINI
      -695       696  3-21G      MINI
 $END
 $DATA
 FMO calculation : C_noW.pdb
 C1 
 N.1-1    7
      N21 3
   
 C.1-1    6
      N21 3
   
 O.1-1    8
      N21 3
   
 H.1-1    1
      N21 3
   
 S.1-1   16
      N21 3
   
 $END
 $FMOXYZ
      1      N          -20.053        5.377       -0.365
      2      C          -18.771        4.877        0.155
      3      C          -17.906        6.045        0.659
      4      O          -18.131        7.203        0.368
      5      C          -17.983        4.148       -0.937
      6      H          -20.566        5.877        0.347
      7      H          -19.916        6.007       -1.145
      8      H          -18.991        4.161        0.998
      9      H          -18.596        3.357       -1.392
     10      H          -17.666        4.823       -1.740
     11      H          -17.085        3.669       -0.518
     12      N          -16.827        5.703        1.444
     13      C          -15.983        6.744        2.000
     14      C          -14.531        6.273        1.894
     15      O          -14.216        5.101        1.903
     16      C          -16.303        7.018        3.490
     17      O          -16.755        5.868        4.139
     18      H          -16.708        4.750        1.794
     19      H          -16.140        7.698        1.414
     20      H          -15.434        7.425        4.035
     21      H          -17.168        7.709        3.587
     22      H          -16.223        5.060        3.976
     23      N          -13.587        7.277        1.858
     24      C          -12.172        6.932        1.785
     25      C          -11.421        7.976        2.623
     26      O          -11.694        9.161        2.623
     27      C          -11.643        6.984        0.337
     28      C          -10.214        6.542        0.293
     29      C           -9.894        5.199        0.500
     30      C           -9.198        7.469        0.054
     31      C           -8.565        4.786        0.462
     32      C           -7.868        7.053        0.021
     33      C           -7.550        5.711        0.221
     34      H          -13.819        8.254        1.723
     35      H          -12.027        5.891        2.202
     36      H          -11.772        8.001       -0.088
     37      H          -12.271        6.321       -0.302
     38      H          -10.678        4.458        0.694
     39      H           -9.441        8.517       -0.106
     40      H           -8.333        3.730        0.622
     41      H           -7.077        7.779       -0.161
     42      H           -6.510        5.390        0.191
     43      N          -10.430        7.484        3.447
     44      C           -9.719        8.407        4.323
     45      C           -8.502        8.948        3.545
     46      O           -7.472        8.309        3.464
     47      C           -9.239        7.675        5.589
     48      C           -8.484        8.627        6.518
     49      C           -8.711        8.365        7.976
     50      O           -9.582        7.353        8.195
     51      O           -8.206        8.959        8.894
     52      H          -10.053        6.549        3.346
     53      H          -10.414        9.248        4.617
     54      H           -8.591        6.813        5.319
     55      H          -10.129        7.231        6.095
     56      H           -8.755        9.690        6.323
     57      H           -7.388        8.564        6.318
     58      N           -8.637       10.217        3.036
     59      C           -7.619       10.833        2.169
     60      C           -6.183       10.605        2.677
     61      O           -5.254       10.537        1.889
     62      C           -7.851       12.344        2.102
     63      H           -9.562       10.647        3.011
     64      H           -7.684       10.382        1.137
     65      H           -8.830       12.592        1.673
     66      H           -7.793       12.819        3.092
     67      H           -7.089       12.828        1.471
     68      N           -5.980       10.569        4.030
     69      C           -4.631       10.461        4.585
     70      C           -3.872        9.234        4.049
     71      O           -2.685        9.324        3.794
     72      C           -4.700       10.386        6.123
     73      C           -3.457       11.003        6.766
     74      C           -3.392       12.486        6.476
     75      O           -4.164       13.066        5.739
     76      N           -2.376       13.195        7.083
     77      H           -6.758       10.489        4.666
     78      H           -4.049       11.377        4.249
     79      H           -4.820        9.337        6.462
     80      H           -5.601       10.927        6.488
     81      H           -2.537       10.500        6.395
     82      H           -3.478       10.822        7.862
     83      H           -2.307       14.184        6.936
     84      H           -1.738       12.792        7.730
     85      N           -4.551        8.042        3.945
     86      C           -3.857        6.870        3.414
     87      C           -3.195        7.127        2.059
     88      O           -2.138        6.606        1.766
     89      H           -5.566        8.040        3.877
     90      H           -4.568        6.013        3.320
     91      H           -3.063        6.547        4.134
     92      N           -3.900        7.907        1.170
     93      C           -3.316        8.248       -0.128
     94      C           -2.043        9.103        0.040
     95      O           -1.034        8.830       -0.583
     96      C           -4.318        9.033       -0.969
     97      H           -4.670        8.482        1.496
     98      H           -3.013        7.293       -0.647
     99      H           -5.192        8.422       -1.226
    100      H           -4.682        9.932       -0.445
    101      H           -3.864        9.372       -1.911
    102      N           -2.117       10.193        0.865
    103      C           -0.949       11.062        1.041
    104      C            0.275       10.263        1.541
    105      O            1.383       10.481        1.088
    106      C           -1.254       12.192        2.033
    107      C           -2.442       13.070        1.591
    108      C           -2.752       14.087        2.694
    109      C           -2.142       13.793        0.274
    110      H           -2.898       10.315        1.504
    111      H           -0.668       11.487        0.032
    112      H           -1.461       11.772        3.038
    113      H           -0.348       12.822        2.152
    114      H           -3.345       12.425        1.447
    115      H           -3.038       13.595        3.632
    116      H           -1.895       14.735        2.905
    117      H           -3.590       14.734        2.411
    118      H           -2.014       13.086       -0.554
    119      H           -2.963       14.464       -0.001
    120      H           -1.233       14.400        0.343
    121      N            0.057        9.339        2.530
    122      C            1.142        8.485        3.024
    123      C            1.713        7.592        1.902
    124      O            2.911        7.481        1.719
    125      C            0.612        7.580        4.136
    126      H           -0.886        9.103        2.825
    127      H            1.978        9.143        3.396
    128      H            0.213        8.161        4.976
    129      H           -0.199        6.925        3.777
    130      H            1.405        6.927        4.526
    131      N            0.800        6.906        1.147
    132      C            1.246        6.034        0.060
    133      C            2.065        6.808       -0.999
    134      O            2.977        6.249       -1.588
    135      C            0.036        5.388       -0.626
    136      C           -0.101        3.943       -0.198
    137      O            0.360        3.515        0.847
    138      N           -0.831        3.129       -1.021
    139      H           -0.197        7.090        1.218
    140      H            1.931        5.246        0.503
    141      H            0.106        5.487       -1.728
    142      H           -0.909        5.919       -0.354
    143      H           -1.155        3.412       -1.916
    144      H           -0.919        2.138       -0.819
    145      N            1.691        8.093       -1.260
    146      C            2.454        8.936       -2.179
    147      C            3.866        9.207       -1.628
    148      O            4.834        9.142       -2.363
    149      C            1.744       10.297       -2.392
    150      C            0.492       10.134       -3.270
    151      C            2.728       11.305       -2.993
    152      C            0.809        9.772       -4.720
    153      H            0.950        8.543       -0.727
    154      H            2.572        8.389       -3.160
    155      H            1.417       10.684       -1.389
    156      H           -0.090       11.075       -3.240
    157      H           -0.168        9.360       -2.825
    158      H            3.455       11.651       -2.247
    159      H            3.307       10.868       -3.818
    160      H            2.211       12.187       -3.381
    161      H           -0.107        9.635       -5.303
    162      H            1.397       10.555       -5.213
    163      H            1.387        8.841       -4.789
    164      N            3.983        9.565       -0.311
    165      C            5.313        9.773        0.273
    166      C            6.255        8.573        0.023
    167      O            7.429        8.731       -0.235
    168      C            5.200        9.956        1.786
    169      H            3.186        9.556        0.318
    170      H            5.782       10.673       -0.218
    171      H            4.632       10.855        2.048
    172      H            4.692        9.096        2.255
    173      H            6.195       10.039        2.243
    174      N            5.698        7.324        0.184
    175      C            6.480        6.124       -0.099
    176      C            6.890        6.050       -1.587
    177      O            7.968        5.608       -1.928
    178      C            5.653        4.857        0.244
    179      C            6.456        3.616       -0.148
    180      C            5.314        4.835        1.734
    181      H            4.713        7.216        0.399
    182      H            7.433        6.159        0.500
    183      H            4.702        4.888       -0.350
    184      H            6.521        3.501       -1.238
    185      H            7.494        3.684        0.213
    186      H            6.021        2.704        0.268
    187      H            4.637        5.655        2.010
    188      H            4.804        3.903        2.014
    189      H            6.205        4.926        2.360
    190      N            5.932        6.411       -2.510
    191      C            6.255        6.446       -3.933
    192      C            7.446        7.356       -4.263
    193      O            8.337        7.112       -5.034
    194      C            5.046        6.977       -4.722
    195      C            3.994        5.924       -4.796
    196      O            4.110        4.728       -4.848
    197      O            2.754        6.491       -4.843
    198      O            7.339        8.544       -3.643
    199      H            5.107        6.925       -2.206
    200      H            6.539        5.402       -4.264
    201      H            5.339        7.293       -5.747
    202      H            4.666        7.920       -4.238
    203      H            2.031        5.825       -4.803
    204      N           10.311      -11.590        3.202
    205      C            9.599      -11.120        4.389
    206      C            8.181      -11.731        4.392
    207      O            7.285      -11.326        3.672
    208      C            9.430       -9.587        4.376
    209      C           10.755       -8.866        4.118
    210      C           11.349       -8.350        5.407
    211      O           12.030       -9.022        6.152
    212      N           11.105       -7.024        5.719
    213      H           10.562      -12.563        3.247
    214      H            9.829      -11.379        2.342
    215      H           10.183      -11.411        5.304
    216      H            8.974       -9.255        5.334
    217      H            8.689       -9.298        3.598
    218      H           10.626       -8.057        3.374
    219      H           11.493       -9.566        3.651
    220      H           10.469       -6.460        5.202
    221      H           11.454       -6.639        6.574
    222      N            7.975      -12.820        5.209
    223      C            6.713      -13.570        5.141
    224      C            5.502      -12.690        5.495
    225      O            4.380      -13.047        5.190
    226      C            6.811      -14.788        6.077
    227      C            5.564      -15.675        6.065
    228      C            5.325      -16.345        4.710
    229      C            4.050      -17.203        4.788
    230      N            3.841      -17.890        3.492
    231      H            8.712      -13.208        5.780
    232      H            6.548      -13.917        4.076
    233      H            7.006      -14.453        7.116
    234      H            7.690      -15.401        5.780
    235      H            5.674      -16.455        6.847
    236      H            4.669      -15.087        6.355
    237      H            5.217      -15.588        3.910
    238      H            6.188      -16.975        4.420
    239      H            4.165      -17.985        5.571
    240      H            3.182      -16.572        5.076
    241      H            3.041      -18.501        3.534
    242      H            3.697      -17.234        2.741
    243      N            5.701      -11.515        6.187
    244      C            4.563      -10.645        6.493
    245      C            3.946      -10.019        5.216
    246      O            2.746       -9.877        5.113
    247      C            5.004       -9.551        7.479
    248      C            5.708       -8.428        6.771
    249      O            4.843       -7.429        6.516
    250      O            6.863       -8.391        6.430
    251      H            6.623      -11.111        6.294
    252      H            3.751      -11.273        6.966
    253      H            5.678       -9.980        8.257
    254      H            4.117       -9.166        8.038
    255      N            4.826       -9.600        4.249
    256      C            4.325       -8.970        3.022
    257      C            3.652      -10.047        2.159
    258      O            2.534       -9.894        1.704
    259      C            5.470       -8.298        2.227
    260      C            6.145       -7.199        3.069
    261      C            4.895       -7.706        0.938
    262      C            7.587       -6.974        2.620
    263      H            5.793       -9.912        4.252
    264      H            3.539       -8.207        3.298
    265      H            6.231       -9.075        1.965
    266      H            6.135       -7.469        4.142
    267      H            5.571       -6.254        2.989
    268      H            4.477       -8.475        0.278
    269      H            4.094       -6.979        1.139
    270      H            5.670       -7.177        0.370
    271      H            8.089       -6.237        3.257
    272      H            8.171       -7.901        2.663
    273      H            7.640       -6.606        1.588
    274      N            4.342      -11.218        1.951
    275      C            3.647      -12.342        1.308
    276      C            2.203      -12.444        1.839
    277      O            1.264      -12.477        1.069
    278      C            4.379      -13.663        1.574
    279      C            5.235      -14.126        0.379
    280      C            6.098      -13.002       -0.199
    281      C            6.123      -15.288        0.836
    282      H            5.211      -11.416        2.432
    283      H            3.570      -12.129        0.202
    284      H            5.001      -13.585        2.486
    285      H            3.644      -14.466        1.803
    286      H            4.542      -14.499       -0.419
    287      H            5.491      -12.213       -0.658
    288      H            6.727      -12.537        0.565
    289      H            6.761      -13.386       -0.984
    290      H            5.541      -16.050        1.367
    291      H            6.566      -15.800       -0.028
    292      H            6.935      -14.956        1.486
    293      N            2.032      -12.590        3.196
    294      C            0.679      -12.716        3.747
    295      C           -0.265      -11.629        3.185
    296      O           -1.336      -11.960        2.706
    297      C            0.743      -12.634        5.283
    298      C           -0.617      -12.893        5.927
    299      C           -1.445      -11.646        5.994
    300      O           -1.106      -10.495        5.964
    301      O           -2.757      -11.976        6.139
    302      H            2.781      -12.365        3.844
    303      H            0.259      -13.709        3.416
    304      H            1.145      -11.641        5.600
    305      H            1.482      -13.378        5.652
    306      H           -0.485      -13.284        6.961
    307      H           -1.174      -13.694        5.388
    308      N            0.137      -10.333        3.300
    309      C           -0.729       -9.223        2.885
    310      C           -1.185       -9.387        1.417
    311      O           -2.327       -9.145        1.069
    312      C            0.042       -7.898        3.037
    313      C           -0.885       -6.735        3.399
    314      C           -0.618       -5.571        2.468
    315      O            0.467       -5.032        2.391
    316      N           -1.685       -5.103        1.729
    317      H            1.083      -10.103        3.601
    318      H           -1.650       -9.238        3.534
    319      H            0.624       -7.680        2.114
    320      H            0.824       -7.999        3.822
    321      H           -0.685       -6.396        4.438
    322      H           -1.947       -7.044        3.399
    323      H           -1.533       -4.373        1.056
    324      H           -2.546       -5.604        1.667
    325      N           -0.206       -9.741        0.529
    326      C           -0.478       -9.886       -0.899
    327      C           -1.398      -11.085       -1.209
    328      O           -2.278      -10.996       -2.044
    329      C            0.844      -10.082       -1.641
    330      H            0.699      -10.068        0.872
    331      H           -1.015       -8.962       -1.262
    332      H            1.518       -9.228       -1.483
    333      H            1.374      -10.983       -1.293
    334      H            0.683      -10.186       -2.721
    335      N           -1.147      -12.259       -0.548
    336      C           -1.933      -13.455       -0.845
    337      C           -3.374      -13.327       -0.313
    338      O           -4.312      -13.834       -0.893
    339      C           -1.288      -14.707       -0.219
    340      C            0.165      -14.864       -0.674
    341      C            0.589      -16.344       -0.757
    342      N            2.054      -16.366       -0.600
    343      C            2.734      -17.439       -0.014
    344      N            1.997      -18.336        0.791
    345      N            4.017      -17.508       -0.209
    346      H           -0.476      -12.317        0.215
    347      H           -2.008      -13.572       -1.966
    348      H           -1.895      -15.592       -0.494
    349      H           -1.333      -14.642        0.889
    350      H            0.335      -14.366       -1.646
    351      H            0.834      -14.331        0.040
    352      H            0.087      -16.931        0.038
    353      H            0.277      -16.792       -1.726
    354      H            2.562      -15.929       -1.372
    355      H            2.520      -18.896        1.434
    356      H            1.080      -18.092        1.102
    357      H            4.588      -18.149        0.306
    358      H            4.693      -16.963       -0.884
    359      N           -3.546      -12.641        0.867
    360      C           -4.886      -12.460        1.413
    361      C           -5.636      -11.308        0.714
    362      O           -6.859      -11.261        0.809
    363      C           -4.808      -12.137        2.903
    364      H           -2.782      -12.165        1.343
    365      H           -5.490      -13.400        1.233
    366      H           -4.255      -12.919        3.444
    367      H           -4.284      -11.190        3.092
    368      H           -5.811      -12.072        3.342
    369      N           -4.924      -10.416       -0.025
    370      C           -5.551       -9.260       -0.672
    371      C           -6.763       -9.675       -1.515
    372      O           -7.754       -8.957       -1.545
    373      C           -4.538       -8.584       -1.594
    374      H           -3.900      -10.390        0.021
    375      H           -5.917       -8.544        0.123
    376      H           -3.676       -8.210       -1.017
    377      H           -4.124       -9.280       -2.345
    378      H           -4.980       -7.737       -2.135
    379      N           -6.721      -10.824       -2.246
    380      C           -7.896      -11.232       -3.028
    381      C           -9.210      -11.091       -2.225
    382      O          -10.250      -10.792       -2.784
    383      C           -7.701      -12.687       -3.534
    384      C           -9.013      -13.470       -3.509
    385      C           -7.142      -12.660       -4.957
    386      H           -5.939      -11.469       -2.165
    387      H           -7.994      -10.526       -3.905
    388      H           -6.972      -13.216       -2.863
    389      H           -9.337      -13.657       -2.477
    390      H           -9.810      -12.934       -4.045
    391      H           -8.893      -14.448       -3.993
    392      H           -6.215      -12.079       -5.021
    393      H           -6.910      -13.675       -5.306
    394      H           -7.861      -12.235       -5.669
    395      N           -9.171      -11.404       -0.890
    396      C          -10.352      -11.294       -0.043
    397      C          -10.420       -9.941        0.700
    398      O          -11.427       -9.269        0.734
    399      C          -10.300      -12.379        1.053
    400      C          -10.413      -13.746        0.453