!*** FMO 5.2 (Gamess) INPUT generated by Facio 22.1.1.64 ***
 $CONTRL RUNTYP=ENERGY NPRINT=-5 ISPHER=-1 MAXIT=50 $END
 $SYSTEM MWORDS=29 $END
 $GDDI NGROUP=1 $END
 $INTGRL NINTIC=-9000000 $END
 $SCF DIRSCF=.FALSE. NPUNCH=0 $END
!*** NumCPU : 2  MemPerNode : 512MB
 $FMOPRP
    NAODIR=210
    NGRFMO(1)=1, 1, 0, 0, 0,   0, 0, 0, 0, 0
    NPRINT=9
 $END
 $FMO
      SCFTYP(1)=RHF
      MODGRD=10
      MODMUL=0
      MAXCAO=5
      MAXBND=13
      NLAYER=1
      NFRAG=13
      ICHARG(1)=  -1,  0,  0,  0,  0,  0,  0,  1,  1,  0,
                   0,  0,  0
      FRGNAM(1)= Glu-1, Pro-3, Val-4, Ala-5, His-6, 
                 Phe-7, Phe-8, Lys-9, Lys-10, Ile-11, 
                 Val-12, Thr-13, Pro-14
      INDAT(1)= 0
                1    -18     21    -30      0
               19     20     31     32     35    -44      0
               33     34     45     46     49    -60      0
               47     48     61     62     65    -70      0
               63     64     71     72     75    -87      0
               73     74     88     89     92   -107      0
               90     91    108    109    112   -127      0
              110    111    128    129    132   -149      0
              130    131    150    151    154   -171      0
              152    153    172    173    176   -190      0
              174    175    191    192    195   -206      0
              193    194    207    208    211   -220      0
              209    210    221   -236      0
 $END
 $FMOHYB
 3-21G        9   5
   1 0  -0.070459   0.164841   0.000000   0.000000   0.502116
         0.466939   0.000000   0.000000   0.418036
   0 1  -0.070465   0.164857   0.473392   0.000000  -0.167359
         0.466967   0.394111   0.000000  -0.139327
   0 1  -0.070465   0.164857  -0.236695  -0.409969  -0.167359
         0.466967  -0.197055  -0.341311  -0.139327
   0 1  -0.070465   0.164857  -0.236695   0.409969  -0.167359
         0.466967  -0.197055   0.341311  -0.139327
   0 1   1.006716   0.074826   0.000000   0.000000   0.000000
        -0.143830   0.000000   0.000000  -0.000003
 MINI         5   5
   1 0  -0.104883   0.308874   0.000000   0.000000   0.521806
   0 1  -0.104883   0.308874   0.491961   0.000000  -0.173934
   0 1  -0.104883   0.308876  -0.245980  -0.426050  -0.173933
   0 1  -0.104883   0.308876  -0.245980   0.426050  -0.173933
   0 1   0.988209   0.063992   0.000000   0.000000   0.000000
 $END
 $FMOBND
       -18        19  3-21G      MINI
       -32        33  3-21G      MINI
       -46        47  3-21G      MINI
       -62        63  3-21G      MINI
       -72        73  3-21G      MINI
       -89        90  3-21G      MINI
      -109       110  3-21G      MINI
      -129       130  3-21G      MINI
      -151       152  3-21G      MINI
      -173       174  3-21G      MINI
      -192       193  3-21G      MINI
      -208       209  3-21G      MINI
 $END
 $DATA
 FMO calculation : L_P06_2A.pdb
 C1 
 N.1-1    7
      N21 3
   
 C.1-1    6
      N21 3
   
 O.1-1    8
      N21 3
   
 H.1-1    1
      N21 3
   
 $END
 $FMOXYZ
      1      N          -18.481        8.112        8.501
      2      C          -18.042        7.073        7.559
      3      C          -19.251        6.332        6.943
      4      O          -20.255        6.066        7.568
      5      C          -17.193        6.007        8.280
      6      C          -15.846        6.596        8.704
      7      C          -15.084        5.611        9.523
      8      O          -15.328        4.462        9.775
      9      O          -13.949        6.186       10.023
     10      H          -18.879        8.903        8.017
     11      H          -19.172        7.753        9.149
     12      H          -17.427        7.566        6.760
     13      H          -17.042        5.125        7.618
     14      H          -17.741        5.615        9.163
     15      H          -16.009        7.537        9.287
     16      H          -15.247        6.909        7.822
     17      N          -19.102        6.045        5.607
     18      C          -19.991        5.138        4.886
     19      C          -19.200        3.821        4.722
     20      O          -18.067        3.728        5.164
     21      C          -20.279        5.763        3.507
     22      C          -21.290        6.884        3.620
     23      O          -20.999        8.057        3.617
     24      N          -22.622        6.501        3.666
     25      H          -18.186        6.149        5.161
     26      H          -20.930        4.954        5.472
     27      H          -20.603        5.007        2.768
     28      H          -19.334        6.188        3.083
     29      H          -22.907        5.554        3.757
     30      H          -23.331        7.196        3.788
     31      N          -19.756        2.700        4.154
     32      C          -18.846        1.584        3.810
     33      C          -17.541        2.175        3.237
     34      O          -17.565        3.068        2.404
     35      C          -19.595        0.730        2.771
     36      C          -21.073        1.124        2.939
     37      C          -21.034        2.586        3.436
     38      H          -18.642        1.006        4.748
     39      H          -19.431       -0.348        2.931
     40      H          -19.243        0.952        1.743
     41      H          -21.637        1.025        1.998
     42      H          -21.574        0.472        3.677
     43      H          -21.080        3.284        2.569
     44      H          -21.872        2.819        4.122
     45      N          -16.371        1.666        3.715
     46      C          -15.094        2.302        3.384
     47      C          -14.431        1.475        2.270
     48      O          -14.628        0.300        2.082
     49      C          -14.211        2.383        4.660
     50      C          -12.732        2.568        4.325
     51      C          -14.700        3.551        5.522
     52      H          -16.333        0.916        4.392
     53      H          -15.287        3.341        2.996
     54      H          -14.320        1.426        5.235
     55      H          -12.320        1.687        3.808
     56      H          -12.552        3.435        3.682
     57      H          -12.137        2.703        5.236
     58      H          -15.780        3.480        5.726
     59      H          -14.193        3.568        6.493
     60      H          -14.515        4.517        5.042
     61      N          -13.607        2.229        1.451
     62      C          -12.821        1.601        0.402
     63      C          -11.418        1.319        0.987
     64      O          -10.738        2.181        1.511
     65      C          -12.656        2.554       -0.783
     66      H          -13.441        3.210        1.627
     67      H          -13.327        0.647        0.078
     68      H          -13.632        2.817       -1.213
     69      H          -12.173        3.493       -0.483
     70      H          -12.047        2.108       -1.578
     71      N          -10.967        0.026        0.872
     72      C           -9.659       -0.346        1.398
     73      C           -8.603       -0.042        0.315
     74      O           -8.766       -0.232       -0.869
     75      C           -9.591       -1.852        1.724
     76      C          -10.260       -2.169        3.003
     77      N          -10.486       -3.488        3.405
     78      C          -10.749       -1.361        4.037
     79      N          -11.267       -2.160        5.042
     80      C          -11.120       -3.436        4.645
     81      H          -11.537       -0.719        0.493
     82      H           -9.447        0.266        2.321
     83      H           -8.523       -2.174        1.767
     84      H          -10.032       -2.445        0.885
     85      H          -10.292       -4.314        2.869
     86      H          -10.785       -0.294        4.114
     87      H          -11.443       -4.306        5.187
     88      N           -7.428        0.514        0.791
     89      C           -6.331        0.779       -0.129
     90      C           -5.212       -0.233        0.173
     91      O           -5.119       -0.822        1.227
     92      C           -5.808        2.226        0.004
     93      C           -5.054        2.492        1.270
     94      C           -5.720        2.540        2.497
     95      C           -3.677        2.721        1.226
     96      C           -5.004        2.750        3.673
     97      C           -2.968        2.967        2.399
     98      C           -3.627        2.962        3.627
     99      H           -7.197        0.546        1.775
    100      H           -6.709        0.637       -1.186
    101      H           -6.680        2.917       -0.070
    102      H           -5.181        2.459       -0.882
    103      H           -6.802        2.422        2.541
    104      H           -3.146        2.710        0.273
    105      H           -5.522        2.742        4.629
    106      H           -1.895        3.177        2.353
    107      H           -3.069        3.123        4.546
    108      N           -4.366       -0.498       -0.887
    109      C           -3.217       -1.386       -0.682
    110      C           -2.083       -0.467       -0.172
    111      O           -1.815        0.540       -0.804
    112      C           -2.820       -2.017       -2.029
    113      C           -2.098       -3.310       -1.814
    114      C           -2.825       -4.484       -1.603
    115      C           -0.704       -3.347       -1.839
    116      C           -2.155       -5.693       -1.434
    117      C           -0.038       -4.560       -1.671
    118      C           -0.763       -5.735       -1.474
    119      H           -4.297        0.126       -1.679
    120      H           -3.489       -2.178        0.064
    121      H           -2.202       -1.306       -2.623
    122      H           -3.732       -2.191       -2.648
    123      H           -3.914       -4.456       -1.590
    124      H           -0.130       -2.429       -1.984
    125      H           -2.719       -6.610       -1.277
    126      H            1.050       -4.586       -1.689
    127      H           -0.241       -6.680       -1.346
    128      N           -1.501       -0.773        1.021
    129      C           -0.554        0.140        1.663
    130      C            0.883       -0.166        1.185
    131      O            1.276       -1.290        0.942
    132      C           -0.614        0.007        3.199
    133      C           -0.356       -1.424        3.688
    134      C           -0.333       -1.473        5.219
    135      C           -0.098       -2.904        5.741
    136      N            1.323       -3.281        5.543
    137      H           -1.744       -1.603        1.543
    138      H           -0.823        1.199        1.374
    139      H           -1.597        0.364        3.562
    140      H            0.138        0.695        3.641
    141      H           -1.124       -2.121        3.307
    142      H            0.609       -1.794        3.277
    143      H            0.464       -0.808        5.610
    144      H           -1.285       -1.088        5.628
    145      H           -0.308       -2.941        6.832
    146      H           -0.797       -3.614        5.251
    147      H            2.230       -2.809        5.948
    148      H            1.512       -4.208        5.884
    149      H            1.563       -3.248        4.561
    150      N            1.704        0.931        1.076
    151      C            3.065        0.818        0.544
    152      C            4.098        0.986        1.668
    153      O            4.001        1.826        2.546
    154      C            3.348        1.956       -0.471
    155      C            2.466        1.756       -1.702
    156      C            2.674        2.837       -2.772
    157      C            1.639        2.567       -3.882
    158      N            1.582        3.642       -4.905
    159      H            1.328        1.885        1.129
    160      H            3.197       -0.182        0.043
    161      H            4.422        1.963       -0.750
    162      H            3.143        2.945       -0.010
    163      H            2.644        0.755       -2.139
    164      H            1.401        1.758       -1.393
    165      H            3.705        2.819       -3.170
    166      H            2.532        3.857       -2.355
    167      H            1.873        1.579       -4.346
    168      H            1.565        4.734       -4.772
    169      H            0.628        2.491       -3.424
    170      H            2.388        3.572       -5.521
    171      H            0.739        3.545       -5.464
    172      N            5.216        0.195        1.570
    173      C            6.404        0.433        2.407
    174      C            7.620        0.019        1.546
    175      O            7.475       -0.522        0.468
    176      C            6.274       -0.264        3.782
    177      C            7.349        0.188        4.786
    178      C            6.294       -1.786        3.644
    179      C            7.380        1.701        4.999
    180      H            5.295       -0.571        0.905
    181      H            6.467        1.550        2.588
    182      H            5.272        0.045        4.195
    183      H            8.346       -0.187        4.492
    184      H            7.143       -0.307        5.759
    185      H            5.487       -2.135        2.985
    186      H            7.240       -2.149        3.228
    187      H            6.146       -2.276        4.613
    188      H            8.061        1.972        5.814
    189      H            7.706        2.248        4.108
    190      H            6.385        2.084        5.263
    191      N            8.871        0.446        1.950
    192      C            9.930        0.627        0.965
    193      C           11.021       -0.462        1.031
    194      O           11.093       -1.353        1.844
    195      C           10.619        2.024        1.138
    196      C            9.642        3.098        1.615
    197      C           11.810        1.959        2.095
    198      H            9.061        0.745        2.892
    199      H            9.460        0.567       -0.065
    200      H           10.984        2.326        0.121
    201      H            8.686        3.046        1.071
    202      H            9.429        3.021        2.684
    203      H           10.055        4.102        1.438
    204      H           12.692        1.498        1.631
    205      H           12.136        2.964        2.392
    206      H           11.582        1.397        3.005
    207      N           11.951       -0.358       -0.009
    208      C           13.184       -1.143       -0.018
    209      C           14.359       -0.224        0.351
    210      O           14.337        0.954        0.059
    211      C           13.411       -1.654       -1.482
    212      O           12.413       -2.608       -1.775
    213      C           14.731       -2.390       -1.656
    214      H           11.998        0.499       -0.563
    215      H           13.084       -2.019        0.674
    216      H           13.311       -0.809       -2.205
    217      H           11.531       -2.268       -1.507
    218      H           14.768       -2.870       -2.646
    219      H           15.594       -1.717       -1.585
    220      H           14.857       -3.188       -0.916
    221      N           15.503       -0.784        0.897
    222      C           16.648        0.080        1.231
    223      C           17.558        0.191        0.012
    224      O           17.648        1.113       -0.750
    225      C           17.377       -0.578        2.424
    226      C           16.402       -1.642        2.952
    227      C           15.505       -1.989        1.746
    228      O           18.365       -0.894       -0.129
    229      H           16.294        1.121        1.475
    230      H           17.652        0.159        3.194
    231      H           18.329       -1.047        2.103
    232      H           18.973       -0.825       -0.908
    233      H           16.935       -2.528        3.328
    234      H           15.800       -1.247        3.788
    235      H           15.933       -2.828        1.154
    236      H           14.481       -2.273        2.060
 $END
       
